5 10 6 22 1 1 0 3 7 4 3 8 8 21 2 19 9 9 4 19
6 4 7 4 3 25 0 5 5 15 2 4 8 25 1 19 4 17 9 23
0 23 5 10 1 23 3 6 6 6 9 1 2 12 4 18 7 25 8 6
3 10 7 26 6 18 4 26 2 25 8 10 0 19 9 26 5 14 1 26
0 26 6 21 5 1 7 25 3 3 8 21 4 8 2 13 9 14 1 12
6 3 1 15 7 22 0 1 4 12 5 4 9 17 2 10 3 4 8 25
1 21 4 18 6 22 0 12 3 15 2 15 8 4 7 13 5 13 9 6
3 1 7 15 6 8 8 14 2 13 1 1 9 13 4 22 0 13 5 21
5 23 4 12 0 21 9 14 1 25 2 21 3 21 6 1 8 9 7 15
3 19 4 9 8 15 5 6 1 6 0 14 6 18 2 10 7 10 9 25
